NAME : local_1
TYPE : ATSP
DIMENSION : 6
EDGE_WEIGHT_TYPE : EXPLICIT
EDGE_WEIGHT_FORMAT : FULL_MATRIX
EDGE_WEIGHT_SECTION
0 855 878 850 174 934 
0 0 153 10000000 1008 134 
0 153 0 10000000 10000000 123 
0 10000000 10000000 0 746 10000000 
0 1021 10000000 776 0 1034 
0 10000000 10000000 10000000 10000000 0 
EOF